(declare-const T_542 Int) (assert (<= 0 T_542))
(declare-const T_541 Int) (assert (<= 0 T_541))
(declare-const T_540 Int) (assert (<= 0 T_540))
(declare-fun P_23 (Int ) Int)
(assert (forall ((X_539 Int)) (= (P_23 X_539) (+ (* T_540 1) (* T_541 (* X_539)) (* T_542 (* X_539 X_539))))))
(assert (forall ((T_72 Int)
(T_230 Int) (T_538 Int)) (exists ((T_269 Int)) (=> (and (= T_72 T_230)
(= T_538 (P T_230))) (and (and (= T_230 T_269))
(and (forall ((T_537 Int)) (exists ((T_287 Int)
(T_536 Int)) (=> (and (= T_269 0) (= T_537 0)) (and (and (= (P T_230) T_287)
(= T_287 0) (= T_536 0)) true)))) (forall ((T_96 Int) (T_270 Int) (T_534 Int)
(T_535 Int)) (exists ((T_112 Int) (T_129 Int) (T_331 Int) (T_332 Int)
(T_374 Int) (T_529 Int) (T_530 Int) (T_531 Int) (T_532 Int)
(T_533 Int)) (=> (and (= T_96 T_270) (= T_269 (+ T_270 1)) (= T_534 (+ T_270
 1)) (= T_535 1)) (and (and (= (P T_230) T_331) (= T_331 (+ T_332 1))
(= T_332 T_529) (= T_374 T_530) (= T_529 T_112) (= T_530 T_129)
(= T_531 (P T_374)) (= T_532 (+ T_332 1)) (= T_533 1))
(and (= (P T_374) T_332)
(= T_374 T_270))))))))))))

(check-sat)
(get-model)
